NAME: random_30_3
TYPE: TSP
COMMENT: random_30_3
DIMENSION: 30
EDGE_WEIGHT_TYPE: EUC_2D
NODE_COORD_SECTION
1 442 152
2 173 179
3 254 51
4 84 490
5 291 446
6 340 160
7 375 273
8 18 133
9 371 79
10 491 385
11 31 471
12 180 112
13 373 464
14 218 434
15 302 306
16 11 22
17 462 348
18 384 48
19 392 199
20 452 469
21 477 343
22 458 5
23 252 266
24 258 451
25 350 314
26 116 77
27 259 20
28 58 78
29 433 57
30 485 238
